examples/mpec/unknown.col
x1
x2
c.v
